
        $ From http://www.csplib.org/Problems/prob009/data/helmut.pdf
        $ Problem number 138
        $ Sequence length : 25
        language ESSENCE' 1.0
        letting sizemaster be 425
        letting sizes be sequence(3,4,5,9,10,12,13,14,16,19,20,31,46,48,56,79,102,104,116,126,128,140,142,157,181)
        